4 
5  45 
6  00 15 30 45 
7  00 16 31 46 
8  01 16 31 46 
9  01 16 31 46 
10  01 15 30 45 
11  00 15 30 45 
12  00 15 30 45 
13  00 15 30 46 
14  01 16 31 46 
15  01 16 33 48 
16  03 18 33 48 
17  03 18 33 48 
18  03 18 33 48 
19  03 18 32 46 
20  01 15 30 45 
21  00 15 30 45 
22  00 15 30 47 
23  02 16 33 
0 
